Welcome to the CBC MILP Solver 
Version: 2.10.3 
Build Date: Dec 15 2019 

command line - C:\Users\Juve\AppData\Local\Packages\PythonSoftwareFoundation.Python.3.9_qbz5n2kfra8p0\LocalCache\local-packages\Python39\site-packages\pulp\apis\..\solverdir\cbc\win\64\cbc.exe C:\Users\Juve\AppData\Local\Temp\69da7ed2094f4b18953c18d894b947d2-pulp.mps timeMode elapsed branch printingOptions all solution C:\Users\Juve\AppData\Local\Temp\69da7ed2094f4b18953c18d894b947d2-pulp.sol (default strategy 1)
At line 2 NAME          MODEL
At line 3 ROWS
At line 9 COLUMNS
At line 28 RHS
At line 33 BOUNDS
At line 34 ENDATA
Problem MODEL has 4 rows, 4 columns and 14 elements
Coin0008I MODEL read with 0 errors
Option for timeMode changed from cpu to elapsed
Presolve 4 (0) rows, 4 (0) columns and 14 (0) elements
0  Obj 0 Primal inf 7.0999996 (4)
2  Obj 90
Optimal - objective value 90
Optimal objective 90 - 2 iterations time 0.002
Option for printingOptions changed from normal to all
Total time (CPU seconds):       0.00   (Wallclock seconds):       0.00

